language Essence 1.3

letting bot_end be [779, 2013, 487, 2347, 558, 2087, 2528, 1399, 1468, 2118, 241, 814, 411, 2560; int(1..14)]
letting bot_start be [2376, 384, 683, 1078, 1721, 588, 937, 2505, 1182, 2319, 2521, 1397, 1526, 2373; int(1..14)]
letting bots be 14
letting buffer_col be 2
letting buffer_row be 2
letting corridor_size be 1
letting n_shelves_col be 49
letting n_shelves_row be 7
letting shelf_col_size be 2
letting shelf_row_size be 1
